/*********************************************
 * OPL 12.10.0.0 Data
 * Author: Hakeem-Ur-Rehman
 * Creation Date: Aug 30, 2020 at 4:37:36 PM
 *********************************************/
//DATA
unitcostPTC = [[190,210],[185,205]];
unitcostCTR = [[175,180,165],[235,130,145]];
supply = [150,180];
demand = [38,145,120];
 